<?xml version="1.0" encoding="UTF-8"?><osil xmlns="os.optimizationservices.org"   xmlns:xsi="http://www.w3.org/2001/XMLSchema-instance" xsi:schemaLocation="os.optimizationservices.org http://www.optimizationservices.org/schemas/2.0/OSiL.xsd" ><instanceHeader><name>q_30_0_50_2</name></instanceHeader><instanceData><variables numberOfVariables="30"><var name="x1" ub="1"/><var name="x2" ub="1"/><var name="x3" ub="1"/><var name="x4" ub="1"/><var name="x5" ub="1"/><var name="x6" ub="1"/><var name="x7" ub="1"/><var name="x8" ub="1"/><var name="x9" ub="1"/><var name="x10" ub="1"/><var name="x11" ub="1"/><var name="x12" ub="1"/><var name="x13" ub="1"/><var name="x14" ub="1"/><var name="x15" ub="1"/><var name="x16" ub="1"/><var name="x17" ub="1"/><var name="x18" ub="1"/><var name="x19" ub="1"/><var name="x20" ub="1"/><var name="x21" ub="1"/><var name="x22" ub="1"/><var name="x23" ub="1"/><var name="x24" ub="1"/><var name="x25" ub="1"/><var name="x26" ub="1"/><var name="x27" ub="1"/><var name="x28" ub="1"/><var name="x29" ub="1"/><var name="x30" ub="1"/></variables><objectives numberOfObjectives="1"><obj maxOrMin="min" name="defObj_x31" numberOfObjCoef="30"><coef idx="0">-.9526</coef><coef idx="1">-.9404</coef><coef idx="2">-.4876</coef><coef idx="3">-.4892</coef><coef idx="4">-.8809</coef><coef idx="5">.5844</coef><coef idx="6">-.5909</coef><coef idx="7">.8432</coef><coef idx="8">.4261</coef><coef idx="9">-.7159</coef><coef idx="10">.6584</coef><coef idx="11">6.54e-2</coef><coef idx="12">.9716</coef><coef idx="13">.3374</coef><coef idx="14">-.6073</coef><coef idx="15">-.4237</coef><coef idx="16">.4155</coef><coef idx="17">.8152</coef><coef idx="18">-.6799</coef><coef idx="19">-.7925</coef><coef idx="20">-.3313</coef><coef idx="21">-.8543</coef><coef idx="22">.6806</coef><coef idx="23">-.7313</coef><coef idx="24">.7493</coef><coef idx="25">-.1795</coef><coef idx="26">-.6154</coef><coef idx="27">.4774</coef><coef idx="28">.2237</coef><coef idx="29">.819</coef></obj></objectives><quadraticCoefficients  numberOfQuadraticTerms="232" ><qTerm  idx="-1"  idxOne="0"  idxTwo="7"  coef="-1.2014"/><qTerm  idx="-1"  idxOne="0"  idxTwo="8"  coef="1.4882"/><qTerm  idx="-1"  idxOne="0"  idxTwo="11"  coef="-1.9403"/><qTerm  idx="-1"  idxOne="0"  idxTwo="13"  coef="-1.7867"/><qTerm  idx="-1"  idxOne="0"  idxTwo="14"  coef=".6386"/><qTerm  idx="-1"  idxOne="0"  idxTwo="17"  coef="-.6521"/><qTerm  idx="-1"  idxOne="0"  idxTwo="22"  coef="1.9586"/><qTerm  idx="-1"  idxOne="0"  idxTwo="25"  coef="-1.4671"/><qTerm  idx="-1"  idxOne="0"  idxTwo="28"  coef="1.386"/><qTerm  idx="-1"  idxOne="1"  idxTwo="3"  coef="1.7072"/><qTerm  idx="-1"  idxOne="1"  idxTwo="4"  coef="1.5083"/><qTerm  idx="-1"  idxOne="1"  idxTwo="5"  coef="1.1338"/><qTerm  idx="-1"  idxOne="1"  idxTwo="8"  coef=".1539"/><qTerm  idx="-1"  idxOne="1"  idxTwo="10"  coef=".758"/><qTerm  idx="-1"  idxOne="1"  idxTwo="11"  coef="-1.11e-2"/><qTerm  idx="-1"  idxOne="1"  idxTwo="12"  coef="-1.9311"/><qTerm  idx="-1"  idxOne="1"  idxTwo="15"  coef="-1.8128"/><qTerm  idx="-1"  idxOne="1"  idxTwo="16"  coef=".1984"/><qTerm  idx="-1"  idxOne="1"  idxTwo="20"  coef=".512"/><qTerm  idx="-1"  idxOne="1"  idxTwo="21"  coef="1.1149"/><qTerm  idx="-1"  idxOne="1"  idxTwo="24"  coef="-1.8419"/><qTerm  idx="-1"  idxOne="1"  idxTwo="27"  coef="-.3441"/><qTerm  idx="-1"  idxOne="1"  idxTwo="28"  coef="-.1698"/><qTerm  idx="-1"  idxOne="1"  idxTwo="29"  coef="-1.9263"/><qTerm  idx="-1"  idxOne="2"  idxTwo="2"  coef="-1.8968"/><qTerm  idx="-1"  idxOne="2"  idxTwo="3"  coef="1.406"/><qTerm  idx="-1"  idxOne="2"  idxTwo="5"  coef="-.6798"/><qTerm  idx="-1"  idxOne="2"  idxTwo="7"  coef=".977"/><qTerm  idx="-1"  idxOne="2"  idxTwo="8"  coef=".4627"/><qTerm  idx="-1"  idxOne="2"  idxTwo="9"  coef="-.6004"/><qTerm  idx="-1"  idxOne="2"  idxTwo="11"  coef="-.139"/><qTerm  idx="-1"  idxOne="2"  idxTwo="13"  coef="-.1228"/><qTerm  idx="-1"  idxOne="2"  idxTwo="15"  coef="-.4508"/><qTerm  idx="-1"  idxOne="2"  idxTwo="16"  coef="1.7263"/><qTerm  idx="-1"  idxOne="2"  idxTwo="17"  coef=".6512"/><qTerm  idx="-1"  idxOne="2"  idxTwo="18"  coef="-1.5264"/><qTerm  idx="-1"  idxOne="2"  idxTwo="19"  coef="-1.6048"/><qTerm  idx="-1"  idxOne="2"  idxTwo="25"  coef="-1.9034"/><qTerm  idx="-1"  idxOne="2"  idxTwo="28"  coef="-1.8326"/><qTerm  idx="-1"  idxOne="2"  idxTwo="29"  coef=".1304"/><qTerm  idx="-1"  idxOne="3"  idxTwo="4"  coef="1.5839"/><qTerm  idx="-1"  idxOne="3"  idxTwo="5"  coef="1.0687"/><qTerm  idx="-1"  idxOne="3"  idxTwo="6"  coef="1.1989"/><qTerm  idx="-1"  idxOne="3"  idxTwo="7"  coef="1.4257"/><qTerm  idx="-1"  idxOne="3"  idxTwo="8"  coef="-.4986"/><qTerm  idx="-1"  idxOne="3"  idxTwo="9"  coef="1.6899"/><qTerm  idx="-1"  idxOne="3"  idxTwo="15"  coef="-.1017"/><qTerm  idx="-1"  idxOne="3"  idxTwo="16"  coef="-1.1321"/><qTerm  idx="-1"  idxOne="3"  idxTwo="17"  coef="-.5784"/><qTerm  idx="-1"  idxOne="3"  idxTwo="18"  coef="1.53e-2"/><qTerm  idx="-1"  idxOne="3"  idxTwo="19"  coef="1.8432"/><qTerm  idx="-1"  idxOne="3"  idxTwo="21"  coef="-.6635"/><qTerm  idx="-1"  idxOne="3"  idxTwo="22"  coef=".9592"/><qTerm  idx="-1"  idxOne="3"  idxTwo="23"  coef="-1.64"/><qTerm  idx="-1"  idxOne="3"  idxTwo="25"  coef=".8077"/><qTerm  idx="-1"  idxOne="3"  idxTwo="26"  coef="1.5812"/><qTerm  idx="-1"  idxOne="4"  idxTwo="4"  coef="-.6876"/><qTerm  idx="-1"  idxOne="4"  idxTwo="8"  coef="-1.3106"/><qTerm  idx="-1"  idxOne="4"  idxTwo="9"  coef="1.4735"/><qTerm  idx="-1"  idxOne="4"  idxTwo="10"  coef="-1.2385"/><qTerm  idx="-1"  idxOne="4"  idxTwo="11"  coef=".6208"/><qTerm  idx="-1"  idxOne="4"  idxTwo="12"  coef="1.8675"/><qTerm  idx="-1"  idxOne="4"  idxTwo="13"  coef="-1.8787"/><qTerm  idx="-1"  idxOne="4"  idxTwo="15"  coef="1.5288"/><qTerm  idx="-1"  idxOne="4"  idxTwo="16"  coef="1.4998"/><qTerm  idx="-1"  idxOne="4"  idxTwo="17"  coef="1.9059"/><qTerm  idx="-1"  idxOne="4"  idxTwo="19"  coef="1.9186"/><qTerm  idx="-1"  idxOne="4"  idxTwo="20"  coef="-8.1e-2"/><qTerm  idx="-1"  idxOne="4"  idxTwo="21"  coef=".898"/><qTerm  idx="-1"  idxOne="4"  idxTwo="24"  coef="-.6565"/><qTerm  idx="-1"  idxOne="4"  idxTwo="25"  coef="-.7003"/><qTerm  idx="-1"  idxOne="4"  idxTwo="27"  coef="1.214"/><qTerm  idx="-1"  idxOne="4"  idxTwo="28"  coef="-1.5836"/><qTerm  idx="-1"  idxOne="5"  idxTwo="7"  coef="1.5097"/><qTerm  idx="-1"  idxOne="5"  idxTwo="8"  coef="-.9429"/><qTerm  idx="-1"  idxOne="5"  idxTwo="10"  coef="-.8152"/><qTerm  idx="-1"  idxOne="5"  idxTwo="12"  coef=".5911"/><qTerm  idx="-1"  idxOne="5"  idxTwo="13"  coef="-.8244"/><qTerm  idx="-1"  idxOne="5"  idxTwo="14"  coef="1.1566"/><qTerm  idx="-1"  idxOne="5"  idxTwo="15"  coef="1.1694"/><qTerm  idx="-1"  idxOne="5"  idxTwo="17"  coef=".6235"/><qTerm  idx="-1"  idxOne="5"  idxTwo="18"  coef=".2409"/><qTerm  idx="-1"  idxOne="5"  idxTwo="19"  coef="-1.8866"/><qTerm  idx="-1"  idxOne="5"  idxTwo="20"  coef=".4937"/><qTerm  idx="-1"  idxOne="5"  idxTwo="21"  coef="1.5389"/><qTerm  idx="-1"  idxOne="5"  idxTwo="22"  coef="-1.5069"/><qTerm  idx="-1"  idxOne="5"  idxTwo="26"  coef="-1.1068"/><qTerm  idx="-1"  idxOne="5"  idxTwo="27"  coef="-1.01"/><qTerm  idx="-1"  idxOne="5"  idxTwo="28"  coef=".4564"/><qTerm  idx="-1"  idxOne="5"  idxTwo="29"  coef="1.2459"/><qTerm  idx="-1"  idxOne="6"  idxTwo="8"  coef="-.2592"/><qTerm  idx="-1"  idxOne="6"  idxTwo="10"  coef="1.8214"/><qTerm  idx="-1"  idxOne="6"  idxTwo="14"  coef="-.6313"/><qTerm  idx="-1"  idxOne="6"  idxTwo="15"  coef="-.4876"/><qTerm  idx="-1"  idxOne="6"  idxTwo="18"  coef="-.6673"/><qTerm  idx="-1"  idxOne="6"  idxTwo="19"  coef=".784"/><qTerm  idx="-1"  idxOne="6"  idxTwo="20"  coef="1.3658"/><qTerm  idx="-1"  idxOne="6"  idxTwo="21"  coef=".8375"/><qTerm  idx="-1"  idxOne="6"  idxTwo="22"  coef="-1.6702"/><qTerm  idx="-1"  idxOne="6"  idxTwo="23"  coef="-4.2e-2"/><qTerm  idx="-1"  idxOne="6"  idxTwo="27"  coef=".7462"/><qTerm  idx="-1"  idxOne="6"  idxTwo="28"  coef=".7296"/><qTerm  idx="-1"  idxOne="7"  idxTwo="10"  coef="-1.8797"/><qTerm  idx="-1"  idxOne="7"  idxTwo="11"  coef="-.2571"/><qTerm  idx="-1"  idxOne="7"  idxTwo="12"  coef="1.3523"/><qTerm  idx="-1"  idxOne="7"  idxTwo="13"  coef="-.4067"/><qTerm  idx="-1"  idxOne="7"  idxTwo="16"  coef="-.9874"/><qTerm  idx="-1"  idxOne="7"  idxTwo="18"  coef="-.7368"/><qTerm  idx="-1"  idxOne="7"  idxTwo="19"  coef=".1892"/><qTerm  idx="-1"  idxOne="7"  idxTwo="26"  coef="-.8453"/><qTerm  idx="-1"  idxOne="8"  idxTwo="9"  coef="-1.0382"/><qTerm  idx="-1"  idxOne="8"  idxTwo="12"  coef="-1.1948"/><qTerm  idx="-1"  idxOne="8"  idxTwo="14"  coef=".675"/><qTerm  idx="-1"  idxOne="8"  idxTwo="16"  coef=".7279"/><qTerm  idx="-1"  idxOne="8"  idxTwo="17"  coef=".9061"/><qTerm  idx="-1"  idxOne="8"  idxTwo="18"  coef="1.5276"/><qTerm  idx="-1"  idxOne="8"  idxTwo="21"  coef="-1.2389"/><qTerm  idx="-1"  idxOne="8"  idxTwo="24"  coef="1.5305"/><qTerm  idx="-1"  idxOne="9"  idxTwo="9"  coef="1.3412"/><qTerm  idx="-1"  idxOne="9"  idxTwo="13"  coef="-1.7808"/><qTerm  idx="-1"  idxOne="9"  idxTwo="19"  coef="-.5229"/><qTerm  idx="-1"  idxOne="9"  idxTwo="20"  coef="-.375"/><qTerm  idx="-1"  idxOne="9"  idxTwo="21"  coef="-9.96e-2"/><qTerm  idx="-1"  idxOne="9"  idxTwo="24"  coef=".8684"/><qTerm  idx="-1"  idxOne="9"  idxTwo="25"  coef=".1926"/><qTerm  idx="-1"  idxOne="9"  idxTwo="26"  coef=".4663"/><qTerm  idx="-1"  idxOne="9"  idxTwo="27"  coef=".13"/><qTerm  idx="-1"  idxOne="9"  idxTwo="29"  coef="-.9088"/><qTerm  idx="-1"  idxOne="10"  idxTwo="12"  coef="1.5711"/><qTerm  idx="-1"  idxOne="10"  idxTwo="13"  coef="-.7607"/><qTerm  idx="-1"  idxOne="10"  idxTwo="15"  coef="1.025"/><qTerm  idx="-1"  idxOne="10"  idxTwo="16"  coef=".3299"/><qTerm  idx="-1"  idxOne="10"  idxTwo="17"  coef="-7.44e-2"/><qTerm  idx="-1"  idxOne="10"  idxTwo="19"  coef=".1531"/><qTerm  idx="-1"  idxOne="10"  idxTwo="20"  coef="1.1407"/><qTerm  idx="-1"  idxOne="10"  idxTwo="21"  coef="-1.3033"/><qTerm  idx="-1"  idxOne="10"  idxTwo="28"  coef="-1.302"/><qTerm  idx="-1"  idxOne="11"  idxTwo="15"  coef="1.6054"/><qTerm  idx="-1"  idxOne="11"  idxTwo="16"  coef="1.0283"/><qTerm  idx="-1"  idxOne="11"  idxTwo="17"  coef=".2433"/><qTerm  idx="-1"  idxOne="11"  idxTwo="20"  coef="1.7578"/><qTerm  idx="-1"  idxOne="11"  idxTwo="21"  coef=".2501"/><qTerm  idx="-1"  idxOne="11"  idxTwo="22"  coef="1.5112"/><qTerm  idx="-1"  idxOne="11"  idxTwo="23"  coef="-1.1474"/><qTerm  idx="-1"  idxOne="11"  idxTwo="25"  coef="1.8038"/><qTerm  idx="-1"  idxOne="11"  idxTwo="29"  coef="-1.73"/><qTerm  idx="-1"  idxOne="12"  idxTwo="12"  coef="-.5517"/><qTerm  idx="-1"  idxOne="12"  idxTwo="13"  coef=".9054"/><qTerm  idx="-1"  idxOne="12"  idxTwo="15"  coef="-1.0041"/><qTerm  idx="-1"  idxOne="12"  idxTwo="16"  coef=".9727"/><qTerm  idx="-1"  idxOne="12"  idxTwo="19"  coef="-1.8503"/><qTerm  idx="-1"  idxOne="12"  idxTwo="22"  coef="-1.7774"/><qTerm  idx="-1"  idxOne="12"  idxTwo="23"  coef=".5099"/><qTerm  idx="-1"  idxOne="12"  idxTwo="25"  coef="-1.5381"/><qTerm  idx="-1"  idxOne="12"  idxTwo="26"  coef="-1.8928"/><qTerm  idx="-1"  idxOne="12"  idxTwo="28"  coef="-.4641"/><qTerm  idx="-1"  idxOne="13"  idxTwo="16"  coef="-.6935"/><qTerm  idx="-1"  idxOne="13"  idxTwo="17"  coef="-1.0572"/><qTerm  idx="-1"  idxOne="13"  idxTwo="19"  coef="-.2422"/><qTerm  idx="-1"  idxOne="13"  idxTwo="20"  coef="1.0142"/><qTerm  idx="-1"  idxOne="13"  idxTwo="21"  coef="-.1029"/><qTerm  idx="-1"  idxOne="13"  idxTwo="23"  coef="-.8937"/><qTerm  idx="-1"  idxOne="13"  idxTwo="25"  coef="1.0133"/><qTerm  idx="-1"  idxOne="13"  idxTwo="26"  coef="-1.5689"/><qTerm  idx="-1"  idxOne="14"  idxTwo="15"  coef="7.8e-2"/><qTerm  idx="-1"  idxOne="14"  idxTwo="16"  coef=".2848"/><qTerm  idx="-1"  idxOne="14"  idxTwo="18"  coef="-1.7087"/><qTerm  idx="-1"  idxOne="14"  idxTwo="21"  coef="1.9758"/><qTerm  idx="-1"  idxOne="14"  idxTwo="26"  coef="1.5862"/><qTerm  idx="-1"  idxOne="14"  idxTwo="27"  coef="1.1349"/><qTerm  idx="-1"  idxOne="14"  idxTwo="28"  coef="-.3947"/><qTerm  idx="-1"  idxOne="15"  idxTwo="17"  coef="1.3579"/><qTerm  idx="-1"  idxOne="15"  idxTwo="18"  coef=".7282"/><qTerm  idx="-1"  idxOne="15"  idxTwo="20"  coef="-1.004"/><qTerm  idx="-1"  idxOne="15"  idxTwo="23"  coef="-.77"/><qTerm  idx="-1"  idxOne="15"  idxTwo="25"  coef="1.0989"/><qTerm  idx="-1"  idxOne="15"  idxTwo="26"  coef="1.7795"/><qTerm  idx="-1"  idxOne="15"  idxTwo="27"  coef="4.4e-2"/><qTerm  idx="-1"  idxOne="15"  idxTwo="28"  coef=".1382"/><qTerm  idx="-1"  idxOne="15"  idxTwo="29"  coef="-.4086"/><qTerm  idx="-1"  idxOne="16"  idxTwo="16"  coef="-.9378"/><qTerm  idx="-1"  idxOne="16"  idxTwo="17"  coef="-.1795"/><qTerm  idx="-1"  idxOne="16"  idxTwo="20"  coef="1.9501"/><qTerm  idx="-1"  idxOne="16"  idxTwo="23"  coef="1.8886"/><qTerm  idx="-1"  idxOne="16"  idxTwo="24"  coef=".7388"/><qTerm  idx="-1"  idxOne="16"  idxTwo="28"  coef="1.3798"/><qTerm  idx="-1"  idxOne="16"  idxTwo="29"  coef="1.3531"/><qTerm  idx="-1"  idxOne="17"  idxTwo="19"  coef="1.7136"/><qTerm  idx="-1"  idxOne="17"  idxTwo="20"  coef="-.7786"/><qTerm  idx="-1"  idxOne="17"  idxTwo="23"  coef="-1.3297"/><qTerm  idx="-1"  idxOne="17"  idxTwo="24"  coef="-1.9992"/><qTerm  idx="-1"  idxOne="17"  idxTwo="25"  coef="-1.2152"/><qTerm  idx="-1"  idxOne="17"  idxTwo="27"  coef=".1581"/><qTerm  idx="-1"  idxOne="17"  idxTwo="28"  coef="1.4601"/><qTerm  idx="-1"  idxOne="18"  idxTwo="19"  coef="-1.3706"/><qTerm  idx="-1"  idxOne="18"  idxTwo="20"  coef="-1.6128"/><qTerm  idx="-1"  idxOne="18"  idxTwo="23"  coef="1.6224"/><qTerm  idx="-1"  idxOne="18"  idxTwo="24"  coef=".7016"/><qTerm  idx="-1"  idxOne="18"  idxTwo="25"  coef="-.6358"/><qTerm  idx="-1"  idxOne="18"  idxTwo="27"  coef="-.7907"/><qTerm  idx="-1"  idxOne="18"  idxTwo="28"  coef="-1.7822"/><qTerm  idx="-1"  idxOne="19"  idxTwo="20"  coef="1.7414"/><qTerm  idx="-1"  idxOne="19"  idxTwo="23"  coef="1.6767"/><qTerm  idx="-1"  idxOne="19"  idxTwo="25"  coef=".5583"/><qTerm  idx="-1"  idxOne="19"  idxTwo="26"  coef="1.4751"/><qTerm  idx="-1"  idxOne="20"  idxTwo="21"  coef="-.4237"/><qTerm  idx="-1"  idxOne="20"  idxTwo="23"  coef="-1.6428"/><qTerm  idx="-1"  idxOne="20"  idxTwo="24"  coef="-1.2061"/><qTerm  idx="-1"  idxOne="20"  idxTwo="26"  coef="-1.3197"/><qTerm  idx="-1"  idxOne="20"  idxTwo="27"  coef="-.6917"/><qTerm  idx="-1"  idxOne="20"  idxTwo="28"  coef=".9312"/><qTerm  idx="-1"  idxOne="21"  idxTwo="21"  coef="-.4851"/><qTerm  idx="-1"  idxOne="21"  idxTwo="23"  coef="-1.2849"/><qTerm  idx="-1"  idxOne="21"  idxTwo="26"  coef="1.4736"/><qTerm  idx="-1"  idxOne="21"  idxTwo="27"  coef="-4.72e-2"/><qTerm  idx="-1"  idxOne="22"  idxTwo="23"  coef="-.8719"/><qTerm  idx="-1"  idxOne="22"  idxTwo="24"  coef="-.7819"/><qTerm  idx="-1"  idxOne="22"  idxTwo="25"  coef="1.5495"/><qTerm  idx="-1"  idxOne="22"  idxTwo="26"  coef="1.9334"/><qTerm  idx="-1"  idxOne="22"  idxTwo="29"  coef=".3717"/><qTerm  idx="-1"  idxOne="23"  idxTwo="23"  coef=".3758"/><qTerm  idx="-1"  idxOne="23"  idxTwo="24"  coef=".221"/><qTerm  idx="-1"  idxOne="23"  idxTwo="25"  coef=".3534"/><qTerm  idx="-1"  idxOne="23"  idxTwo="28"  coef=".1197"/><qTerm  idx="-1"  idxOne="24"  idxTwo="24"  coef=".9597"/><qTerm  idx="-1"  idxOne="24"  idxTwo="25"  coef="-.6479"/><qTerm  idx="-1"  idxOne="25"  idxTwo="25"  coef=".179"/><qTerm  idx="-1"  idxOne="25"  idxTwo="26"  coef="-.9006"/><qTerm  idx="-1"  idxOne="25"  idxTwo="29"  coef="1.5628"/><qTerm  idx="-1"  idxOne="26"  idxTwo="28"  coef="-1.7831"/><qTerm  idx="-1"  idxOne="27"  idxTwo="27"  coef="1.4247"/><qTerm  idx="-1"  idxOne="28"  idxTwo="29"  coef=".5246"/></quadraticCoefficients></instanceData></osil>
